c File: flat200_3_0.col
c
c SOURCE: Joseph Culberson (joe@cs.ualberta.ca)
c DESCRIPTION: Quasi-random coloring problem
c              generated with flatness = 0
c                             probability = 0.036
c                             known coloring = 3
c                             random seed = 1024
c              Creation Date:  Wed Feb 24 10:39:42 1999
c Maximum degree = 8 Minimum degree = 0
c COLOR VERIFICATION: Using the permuted order
c under simple greedy yields the specified
c coloring number
c Color = 3 specified partitions = 3
c p edge 200 479
c cnf created by edge2cnf
p cnf 600 2237
-1 -2 0
-1 -3 0
-2 -3 0
1 2 3 0
-4 -5 0
-4 -6 0
-5 -6 0
4 5 6 0
-7 -8 0
-7 -9 0
-8 -9 0
7 8 9 0
-10 -11 0
-10 -12 0
-11 -12 0
10 11 12 0
-13 -14 0
-13 -15 0
-14 -15 0
13 14 15 0
-16 -17 0
-16 -18 0
-17 -18 0
16 17 18 0
-19 -20 0
-19 -21 0
-20 -21 0
19 20 21 0
-22 -23 0
-22 -24 0
-23 -24 0
22 23 24 0
-25 -26 0
-25 -27 0
-26 -27 0
25 26 27 0
-28 -29 0
-28 -30 0
-29 -30 0
28 29 30 0
-31 -32 0
-31 -33 0
-32 -33 0
31 32 33 0
-34 -35 0
-34 -36 0
-35 -36 0
34 35 36 0
-37 -38 0
-37 -39 0
-38 -39 0
37 38 39 0
-40 -41 0
-40 -42 0
-41 -42 0
40 41 42 0
-43 -44 0
-43 -45 0
-44 -45 0
43 44 45 0
-46 -47 0
-46 -48 0
-47 -48 0
46 47 48 0
-49 -50 0
-49 -51 0
-50 -51 0
49 50 51 0
-52 -53 0
-52 -54 0
-53 -54 0
52 53 54 0
-55 -56 0
-55 -57 0
-56 -57 0
55 56 57 0
-58 -59 0
-58 -60 0
-59 -60 0
58 59 60 0
-61 -62 0
-61 -63 0
-62 -63 0
61 62 63 0
-64 -65 0
-64 -66 0
-65 -66 0
64 65 66 0
-67 -68 0
-67 -69 0
-68 -69 0
67 68 69 0
-70 -71 0
-70 -72 0
-71 -72 0
70 71 72 0
-73 -74 0
-73 -75 0
-74 -75 0
73 74 75 0
-76 -77 0
-76 -78 0
-77 -78 0
76 77 78 0
-79 -80 0
-79 -81 0
-80 -81 0
79 80 81 0
-82 -83 0
-82 -84 0
-83 -84 0
82 83 84 0
-85 -86 0
-85 -87 0
-86 -87 0
85 86 87 0
-88 -89 0
-88 -90 0
-89 -90 0
88 89 90 0
-91 -92 0
-91 -93 0
-92 -93 0
91 92 93 0
-94 -95 0
-94 -96 0
-95 -96 0
94 95 96 0
-97 -98 0
-97 -99 0
-98 -99 0
97 98 99 0
-100 -101 0
-100 -102 0
-101 -102 0
100 101 102 0
-103 -104 0
-103 -105 0
-104 -105 0
103 104 105 0
-106 -107 0
-106 -108 0
-107 -108 0
106 107 108 0
-109 -110 0
-109 -111 0
-110 -111 0
109 110 111 0
-112 -113 0
-112 -114 0
-113 -114 0
112 113 114 0
-115 -116 0
-115 -117 0
-116 -117 0
115 116 117 0
-118 -119 0
-118 -120 0
-119 -120 0
118 119 120 0
-121 -122 0
-121 -123 0
-122 -123 0
121 122 123 0
-124 -125 0
-124 -126 0
-125 -126 0
124 125 126 0
-127 -128 0
-127 -129 0
-128 -129 0
127 128 129 0
-130 -131 0
-130 -132 0
-131 -132 0
130 131 132 0
-133 -134 0
-133 -135 0
-134 -135 0
133 134 135 0
-136 -137 0
-136 -138 0
-137 -138 0
136 137 138 0
-139 -140 0
-139 -141 0
-140 -141 0
139 140 141 0
-142 -143 0
-142 -144 0
-143 -144 0
142 143 144 0
-145 -146 0
-145 -147 0
-146 -147 0
145 146 147 0
-148 -149 0
-148 -150 0
-149 -150 0
148 149 150 0
-151 -152 0
-151 -153 0
-152 -153 0
151 152 153 0
-154 -155 0
-154 -156 0
-155 -156 0
154 155 156 0
-157 -158 0
-157 -159 0
-158 -159 0
157 158 159 0
-160 -161 0
-160 -162 0
-161 -162 0
160 161 162 0
-163 -164 0
-163 -165 0
-164 -165 0
163 164 165 0
-166 -167 0
-166 -168 0
-167 -168 0
166 167 168 0
-169 -170 0
-169 -171 0
-170 -171 0
169 170 171 0
-172 -173 0
-172 -174 0
-173 -174 0
172 173 174 0
-175 -176 0
-175 -177 0
-176 -177 0
175 176 177 0
-178 -179 0
-178 -180 0
-179 -180 0
178 179 180 0
-181 -182 0
-181 -183 0
-182 -183 0
181 182 183 0
-184 -185 0
-184 -186 0
-185 -186 0
184 185 186 0
-187 -188 0
-187 -189 0
-188 -189 0
187 188 189 0
-190 -191 0
-190 -192 0
-191 -192 0
190 191 192 0
-193 -194 0
-193 -195 0
-194 -195 0
193 194 195 0
-196 -197 0
-196 -198 0
-197 -198 0
196 197 198 0
-199 -200 0
-199 -201 0
-200 -201 0
199 200 201 0
-202 -203 0
-202 -204 0
-203 -204 0
202 203 204 0
-205 -206 0
-205 -207 0
-206 -207 0
205 206 207 0
-208 -209 0
-208 -210 0
-209 -210 0
208 209 210 0
-211 -212 0
-211 -213 0
-212 -213 0
211 212 213 0
-214 -215 0
-214 -216 0
-215 -216 0
214 215 216 0
-217 -218 0
-217 -219 0
-218 -219 0
217 218 219 0
-220 -221 0
-220 -222 0
-221 -222 0
220 221 222 0
-223 -224 0
-223 -225 0
-224 -225 0
223 224 225 0
-226 -227 0
-226 -228 0
-227 -228 0
226 227 228 0
-229 -230 0
-229 -231 0
-230 -231 0
229 230 231 0
-232 -233 0
-232 -234 0
-233 -234 0
232 233 234 0
-235 -236 0
-235 -237 0
-236 -237 0
235 236 237 0
-238 -239 0
-238 -240 0
-239 -240 0
238 239 240 0
-241 -242 0
-241 -243 0
-242 -243 0
241 242 243 0
-244 -245 0
-244 -246 0
-245 -246 0
244 245 246 0
-247 -248 0
-247 -249 0
-248 -249 0
247 248 249 0
-250 -251 0
-250 -252 0
-251 -252 0
250 251 252 0
-253 -254 0
-253 -255 0
-254 -255 0
253 254 255 0
-256 -257 0
-256 -258 0
-257 -258 0
256 257 258 0
-259 -260 0
-259 -261 0
-260 -261 0
259 260 261 0
-262 -263 0
-262 -264 0
-263 -264 0
262 263 264 0
-265 -266 0
-265 -267 0
-266 -267 0
265 266 267 0
-268 -269 0
-268 -270 0
-269 -270 0
268 269 270 0
-271 -272 0
-271 -273 0
-272 -273 0
271 272 273 0
-274 -275 0
-274 -276 0
-275 -276 0
274 275 276 0
-277 -278 0
-277 -279 0
-278 -279 0
277 278 279 0
-280 -281 0
-280 -282 0
-281 -282 0
280 281 282 0
-283 -284 0
-283 -285 0
-284 -285 0
283 284 285 0
-286 -287 0
-286 -288 0
-287 -288 0
286 287 288 0
-289 -290 0
-289 -291 0
-290 -291 0
289 290 291 0
-292 -293 0
-292 -294 0
-293 -294 0
292 293 294 0
-295 -296 0
-295 -297 0
-296 -297 0
295 296 297 0
-298 -299 0
-298 -300 0
-299 -300 0
298 299 300 0
-301 -302 0
-301 -303 0
-302 -303 0
301 302 303 0
-304 -305 0
-304 -306 0
-305 -306 0
304 305 306 0
-307 -308 0
-307 -309 0
-308 -309 0
307 308 309 0
-310 -311 0
-310 -312 0
-311 -312 0
310 311 312 0
-313 -314 0
-313 -315 0
-314 -315 0
313 314 315 0
-316 -317 0
-316 -318 0
-317 -318 0
316 317 318 0
-319 -320 0
-319 -321 0
-320 -321 0
319 320 321 0
-322 -323 0
-322 -324 0
-323 -324 0
322 323 324 0
-325 -326 0
-325 -327 0
-326 -327 0
325 326 327 0
-328 -329 0
-328 -330 0
-329 -330 0
328 329 330 0
-331 -332 0
-331 -333 0
-332 -333 0
331 332 333 0
-334 -335 0
-334 -336 0
-335 -336 0
334 335 336 0
-337 -338 0
-337 -339 0
-338 -339 0
337 338 339 0
-340 -341 0
-340 -342 0
-341 -342 0
340 341 342 0
-343 -344 0
-343 -345 0
-344 -345 0
343 344 345 0
-346 -347 0
-346 -348 0
-347 -348 0
346 347 348 0
-349 -350 0
-349 -351 0
-350 -351 0
349 350 351 0
-352 -353 0
-352 -354 0
-353 -354 0
352 353 354 0
-355 -356 0
-355 -357 0
-356 -357 0
355 356 357 0
-358 -359 0
-358 -360 0
-359 -360 0
358 359 360 0
-361 -362 0
-361 -363 0
-362 -363 0
361 362 363 0
-364 -365 0
-364 -366 0
-365 -366 0
364 365 366 0
-367 -368 0
-367 -369 0
-368 -369 0
367 368 369 0
-370 -371 0
-370 -372 0
-371 -372 0
370 371 372 0
-373 -374 0
-373 -375 0
-374 -375 0
373 374 375 0
-376 -377 0
-376 -378 0
-377 -378 0
376 377 378 0
-379 -380 0
-379 -381 0
-380 -381 0
379 380 381 0
-382 -383 0
-382 -384 0
-383 -384 0
382 383 384 0
-385 -386 0
-385 -387 0
-386 -387 0
385 386 387 0
-388 -389 0
-388 -390 0
-389 -390 0
388 389 390 0
-391 -392 0
-391 -393 0
-392 -393 0
391 392 393 0
-394 -395 0
-394 -396 0
-395 -396 0
394 395 396 0
-397 -398 0
-397 -399 0
-398 -399 0
397 398 399 0
-400 -401 0
-400 -402 0
-401 -402 0
400 401 402 0
-403 -404 0
-403 -405 0
-404 -405 0
403 404 405 0
-406 -407 0
-406 -408 0
-407 -408 0
406 407 408 0
-409 -410 0
-409 -411 0
-410 -411 0
409 410 411 0
-412 -413 0
-412 -414 0
-413 -414 0
412 413 414 0
-415 -416 0
-415 -417 0
-416 -417 0
415 416 417 0
-418 -419 0
-418 -420 0
-419 -420 0
418 419 420 0
-421 -422 0
-421 -423 0
-422 -423 0
421 422 423 0
-424 -425 0
-424 -426 0
-425 -426 0
424 425 426 0
-427 -428 0
-427 -429 0
-428 -429 0
427 428 429 0
-430 -431 0
-430 -432 0
-431 -432 0
430 431 432 0
-433 -434 0
-433 -435 0
-434 -435 0
433 434 435 0
-436 -437 0
-436 -438 0
-437 -438 0
436 437 438 0
-439 -440 0
-439 -441 0
-440 -441 0
439 440 441 0
-442 -443 0
-442 -444 0
-443 -444 0
442 443 444 0
-445 -446 0
-445 -447 0
-446 -447 0
445 446 447 0
-448 -449 0
-448 -450 0
-449 -450 0
448 449 450 0
-451 -452 0
-451 -453 0
-452 -453 0
451 452 453 0
-454 -455 0
-454 -456 0
-455 -456 0
454 455 456 0
-457 -458 0
-457 -459 0
-458 -459 0
457 458 459 0
-460 -461 0
-460 -462 0
-461 -462 0
460 461 462 0
-463 -464 0
-463 -465 0
-464 -465 0
463 464 465 0
-466 -467 0
-466 -468 0
-467 -468 0
466 467 468 0
-469 -470 0
-469 -471 0
-470 -471 0
469 470 471 0
-472 -473 0
-472 -474 0
-473 -474 0
472 473 474 0
-475 -476 0
-475 -477 0
-476 -477 0
475 476 477 0
-478 -479 0
-478 -480 0
-479 -480 0
478 479 480 0
-481 -482 0
-481 -483 0
-482 -483 0
481 482 483 0
-484 -485 0
-484 -486 0
-485 -486 0
484 485 486 0
-487 -488 0
-487 -489 0
-488 -489 0
487 488 489 0
-490 -491 0
-490 -492 0
-491 -492 0
490 491 492 0
-493 -494 0
-493 -495 0
-494 -495 0
493 494 495 0
-496 -497 0
-496 -498 0
-497 -498 0
496 497 498 0
-499 -500 0
-499 -501 0
-500 -501 0
499 500 501 0
-502 -503 0
-502 -504 0
-503 -504 0
502 503 504 0
-505 -506 0
-505 -507 0
-506 -507 0
505 506 507 0
-508 -509 0
-508 -510 0
-509 -510 0
508 509 510 0
-511 -512 0
-511 -513 0
-512 -513 0
511 512 513 0
-514 -515 0
-514 -516 0
-515 -516 0
514 515 516 0
-517 -518 0
-517 -519 0
-518 -519 0
517 518 519 0
-520 -521 0
-520 -522 0
-521 -522 0
520 521 522 0
-523 -524 0
-523 -525 0
-524 -525 0
523 524 525 0
-526 -527 0
-526 -528 0
-527 -528 0
526 527 528 0
-529 -530 0
-529 -531 0
-530 -531 0
529 530 531 0
-532 -533 0
-532 -534 0
-533 -534 0
532 533 534 0
-535 -536 0
-535 -537 0
-536 -537 0
535 536 537 0
-538 -539 0
-538 -540 0
-539 -540 0
538 539 540 0
-541 -542 0
-541 -543 0
-542 -543 0
541 542 543 0
-544 -545 0
-544 -546 0
-545 -546 0
544 545 546 0
-547 -548 0
-547 -549 0
-548 -549 0
547 548 549 0
-550 -551 0
-550 -552 0
-551 -552 0
550 551 552 0
-553 -554 0
-553 -555 0
-554 -555 0
553 554 555 0
-556 -557 0
-556 -558 0
-557 -558 0
556 557 558 0
-559 -560 0
-559 -561 0
-560 -561 0
559 560 561 0
-562 -563 0
-562 -564 0
-563 -564 0
562 563 564 0
-565 -566 0
-565 -567 0
-566 -567 0
565 566 567 0
-568 -569 0
-568 -570 0
-569 -570 0
568 569 570 0
-571 -572 0
-571 -573 0
-572 -573 0
571 572 573 0
-574 -575 0
-574 -576 0
-575 -576 0
574 575 576 0
-577 -578 0
-577 -579 0
-578 -579 0
577 578 579 0
-580 -581 0
-580 -582 0
-581 -582 0
580 581 582 0
-583 -584 0
-583 -585 0
-584 -585 0
583 584 585 0
-586 -587 0
-586 -588 0
-587 -588 0
586 587 588 0
-589 -590 0
-589 -591 0
-590 -591 0
589 590 591 0
-592 -593 0
-592 -594 0
-593 -594 0
592 593 594 0
-595 -596 0
-595 -597 0
-596 -597 0
595 596 597 0
-598 -599 0
-598 -600 0
-599 -600 0
598 599 600 0
-256 -1 0
-257 -2 0
-258 -3 0
-310 -1 0
-311 -2 0
-312 -3 0
-385 -1 0
-386 -2 0
-387 -3 0
-400 -1 0
-401 -2 0
-402 -3 0
-412 -1 0
-413 -2 0
-414 -3 0
-550 -1 0
-551 -2 0
-552 -3 0
-7 -4 0
-8 -5 0
-9 -6 0
-109 -4 0
-110 -5 0
-111 -6 0
-172 -4 0
-173 -5 0
-174 -6 0
-241 -4 0
-242 -5 0
-243 -6 0
-343 -4 0
-344 -5 0
-345 -6 0
-43 -7 0
-44 -8 0
-45 -9 0
-304 -7 0
-305 -8 0
-306 -9 0
-307 -7 0
-308 -8 0
-309 -9 0
-325 -7 0
-326 -8 0
-327 -9 0
-358 -7 0
-359 -8 0
-360 -9 0
-250 -10 0
-251 -11 0
-252 -12 0
-442 -10 0
-443 -11 0
-444 -12 0
-550 -10 0
-551 -11 0
-552 -12 0
-118 -13 0
-119 -14 0
-120 -15 0
-244 -13 0
-245 -14 0
-246 -15 0
-268 -13 0
-269 -14 0
-270 -15 0
-469 -13 0
-470 -14 0
-471 -15 0
-502 -13 0
-503 -14 0
-504 -15 0
-505 -13 0
-506 -14 0
-507 -15 0
-166 -16 0
-167 -17 0
-168 -18 0
-223 -16 0
-224 -17 0
-225 -18 0
-244 -16 0
-245 -17 0
-246 -18 0
-334 -16 0
-335 -17 0
-336 -18 0
-340 -16 0
-341 -17 0
-342 -18 0
-376 -16 0
-377 -17 0
-378 -18 0
-394 -16 0
-395 -17 0
-396 -18 0
-526 -16 0
-527 -17 0
-528 -18 0
-97 -19 0
-98 -20 0
-99 -21 0
-238 -19 0
-239 -20 0
-240 -21 0
-352 -19 0
-353 -20 0
-354 -21 0
-472 -19 0
-473 -20 0
-474 -21 0
-550 -19 0
-551 -20 0
-552 -21 0
-559 -19 0
-560 -20 0
-561 -21 0
-565 -19 0
-566 -20 0
-567 -21 0
-46 -22 0
-47 -23 0
-48 -24 0
-58 -22 0
-59 -23 0
-60 -24 0
-238 -22 0
-239 -23 0
-240 -24 0
-355 -22 0
-356 -23 0
-357 -24 0
-469 -22 0
-470 -23 0
-471 -24 0
-499 -22 0
-500 -23 0
-501 -24 0
-520 -22 0
-521 -23 0
-522 -24 0
-40 -25 0
-41 -26 0
-42 -27 0
-121 -25 0
-122 -26 0
-123 -27 0
-280 -25 0
-281 -26 0
-282 -27 0
-313 -25 0
-314 -26 0
-315 -27 0
-67 -28 0
-68 -29 0
-69 -30 0
-298 -28 0
-299 -29 0
-300 -30 0
-355 -28 0
-356 -29 0
-357 -30 0
-496 -28 0
-497 -29 0
-498 -30 0
-514 -28 0
-515 -29 0
-516 -30 0
-199 -31 0
-200 -32 0
-201 -33 0
-274 -31 0
-275 -32 0
-276 -33 0
-178 -34 0
-179 -35 0
-180 -36 0
-268 -37 0
-269 -38 0
-270 -39 0
-367 -37 0
-368 -38 0
-369 -39 0
-379 -37 0
-380 -38 0
-381 -39 0
-445 -37 0
-446 -38 0
-447 -39 0
-508 -37 0
-509 -38 0
-510 -39 0
-328 -40 0
-329 -41 0
-330 -42 0
-355 -40 0
-356 -41 0
-357 -42 0
-583 -40 0
-584 -41 0
-585 -42 0
-589 -40 0
-590 -41 0
-591 -42 0
-100 -43 0
-101 -44 0
-102 -45 0
-220 -43 0
-221 -44 0
-222 -45 0
-259 -43 0
-260 -44 0
-261 -45 0
-520 -43 0
-521 -44 0
-522 -45 0
-247 -46 0
-248 -47 0
-249 -48 0
-94 -49 0
-95 -50 0
-96 -51 0
-151 -49 0
-152 -50 0
-153 -51 0
-361 -49 0
-362 -50 0
-363 -51 0
-370 -49 0
-371 -50 0
-372 -51 0
-445 -49 0
-446 -50 0
-447 -51 0
-415 -52 0
-416 -53 0
-417 -54 0
-583 -52 0
-584 -53 0
-585 -54 0
-136 -55 0
-137 -56 0
-138 -57 0
-271 -55 0
-272 -56 0
-273 -57 0
-340 -55 0
-341 -56 0
-342 -57 0
-412 -55 0
-413 -56 0
-414 -57 0
-580 -55 0
-581 -56 0
-582 -57 0
-61 -58 0
-62 -59 0
-63 -60 0
-190 -58 0
-191 -59 0
-192 -60 0
-463 -58 0
-464 -59 0
-465 -60 0
-523 -58 0
-524 -59 0
-525 -60 0
-121 -61 0
-122 -62 0
-123 -63 0
-277 -61 0
-278 -62 0
-279 -63 0
-520 -61 0
-521 -62 0
-522 -63 0
-154 -64 0
-155 -65 0
-156 -66 0
-274 -64 0
-275 -65 0
-276 -66 0
-304 -64 0
-305 -65 0
-306 -66 0
-352 -64 0
-353 -65 0
-354 -66 0
-379 -64 0
-380 -65 0
-381 -66 0
-448 -64 0
-449 -65 0
-450 -66 0
-538 -64 0
-539 -65 0
-540 -66 0
-88 -67 0
-89 -68 0
-90 -69 0
-130 -67 0
-131 -68 0
-132 -69 0
-361 -67 0
-362 -68 0
-363 -69 0
-520 -67 0
-521 -68 0
-522 -69 0
-526 -67 0
-527 -68 0
-528 -69 0
-148 -70 0
-149 -71 0
-150 -72 0
-157 -70 0
-158 -71 0
-159 -72 0
-265 -70 0
-266 -71 0
-267 -72 0
-406 -70 0
-407 -71 0
-408 -72 0
-415 -70 0
-416 -71 0
-417 -72 0
-436 -70 0
-437 -71 0
-438 -72 0
-505 -70 0
-506 -71 0
-507 -72 0
-517 -70 0
-518 -71 0
-519 -72 0
-259 -73 0
-260 -74 0
-261 -75 0
-391 -73 0
-392 -74 0
-393 -75 0
-400 -73 0
-401 -74 0
-402 -75 0
-505 -73 0
-506 -74 0
-507 -75 0
-172 -76 0
-173 -77 0
-174 -78 0
-292 -76 0
-293 -77 0
-294 -78 0
-349 -76 0
-350 -77 0
-351 -78 0
-106 -79 0
-107 -80 0
-108 -81 0
-202 -79 0
-203 -80 0
-204 -81 0
-283 -79 0
-284 -80 0
-285 -81 0
-340 -79 0
-341 -80 0
-342 -81 0
-403 -79 0
-404 -80 0
-405 -81 0
-454 -79 0
-455 -80 0
-456 -81 0
-598 -79 0
-599 -80 0
-600 -81 0
-121 -82 0
-122 -83 0
-123 -84 0
-217 -82 0
-218 -83 0
-219 -84 0
-310 -82 0
-311 -83 0
-312 -84 0
-394 -82 0
-395 -83 0
-396 -84 0
-415 -82 0
-416 -83 0
-417 -84 0
-427 -82 0
-428 -83 0
-429 -84 0
-565 -82 0
-566 -83 0
-567 -84 0
-130 -85 0
-131 -86 0
-132 -87 0
-217 -85 0
-218 -86 0
-219 -87 0
-238 -85 0
-239 -86 0
-240 -87 0
-271 -85 0
-272 -86 0
-273 -87 0
-385 -85 0
-386 -86 0
-387 -87 0
-547 -85 0
-548 -86 0
-549 -87 0
-583 -85 0
-584 -86 0
-585 -87 0
-259 -88 0
-260 -89 0
-261 -90 0
-343 -88 0
-344 -89 0
-345 -90 0
-418 -88 0
-419 -89 0
-420 -90 0
-520 -88 0
-521 -89 0
-522 -90 0
-427 -91 0
-428 -92 0
-429 -93 0
-469 -91 0
-470 -92 0
-471 -93 0
-223 -94 0
-224 -95 0
-225 -96 0
-247 -94 0
-248 -95 0
-249 -96 0
-256 -94 0
-257 -95 0
-258 -96 0
-451 -94 0
-452 -95 0
-453 -96 0
-121 -97 0
-122 -98 0
-123 -99 0
-346 -97 0
-347 -98 0
-348 -99 0
-412 -97 0
-413 -98 0
-414 -99 0
-460 -97 0
-461 -98 0
-462 -99 0
-493 -97 0
-494 -98 0
-495 -99 0
-598 -97 0
-599 -98 0
-600 -99 0
-145 -100 0
-146 -101 0
-147 -102 0
-268 -100 0
-269 -101 0
-270 -102 0
-496 -100 0
-497 -101 0
-498 -102 0
-418 -103 0
-419 -104 0
-420 -105 0
-445 -103 0
-446 -104 0
-447 -105 0
-487 -103 0
-488 -104 0
-489 -105 0
-490 -103 0
-491 -104 0
-492 -105 0
-526 -103 0
-527 -104 0
-528 -105 0
-556 -103 0
-557 -104 0
-558 -105 0
-178 -106 0
-179 -107 0
-180 -108 0
-319 -106 0
-320 -107 0
-321 -108 0
-340 -106 0
-341 -107 0
-342 -108 0
-418 -106 0
-419 -107 0
-420 -108 0
-442 -106 0
-443 -107 0
-444 -108 0
-463 -106 0
-464 -107 0
-465 -108 0
-268 -109 0
-269 -110 0
-270 -111 0
-571 -109 0
-572 -110 0
-573 -111 0
-292 -112 0
-293 -113 0
-294 -114 0
-592 -112 0
-593 -113 0
-594 -114 0
-373 -115 0
-374 -116 0
-375 -117 0
-394 -115 0
-395 -116 0
-396 -117 0
-580 -115 0
-581 -116 0
-582 -117 0
-130 -118 0
-131 -119 0
-132 -120 0
-292 -118 0
-293 -119 0
-294 -120 0
-484 -118 0
-485 -119 0
-486 -120 0
-595 -118 0
-596 -119 0
-597 -120 0
-271 -121 0
-272 -122 0
-273 -123 0
-583 -121 0
-584 -122 0
-585 -123 0
-127 -124 0
-128 -125 0
-129 -126 0
-157 -124 0
-158 -125 0
-159 -126 0
-256 -124 0
-257 -125 0
-258 -126 0
-340 -124 0
-341 -125 0
-342 -126 0
-169 -127 0
-170 -128 0
-171 -129 0
-262 -127 0
-263 -128 0
-264 -129 0
-340 -127 0
-341 -128 0
-342 -129 0
-373 -127 0
-374 -128 0
-375 -129 0
-376 -127 0
-377 -128 0
-378 -129 0
-313 -130 0
-314 -131 0
-315 -132 0
-370 -130 0
-371 -131 0
-372 -132 0
-145 -133 0
-146 -134 0
-147 -135 0
-175 -133 0
-176 -134 0
-177 -135 0
-205 -133 0
-206 -134 0
-207 -135 0
-280 -133 0
-281 -134 0
-282 -135 0
-364 -133 0
-365 -134 0
-366 -135 0
-415 -136 0
-416 -137 0
-417 -138 0
-571 -136 0
-572 -137 0
-573 -138 0
-193 -139 0
-194 -140 0
-195 -141 0
-358 -139 0
-359 -140 0
-360 -141 0
-433 -139 0
-434 -140 0
-435 -141 0
-532 -139 0
-533 -140 0
-534 -141 0
-163 -142 0
-164 -143 0
-165 -144 0
-556 -142 0
-557 -143 0
-558 -144 0
-208 -145 0
-209 -146 0
-210 -147 0
-250 -145 0
-251 -146 0
-252 -147 0
-265 -145 0
-266 -146 0
-267 -147 0
-325 -145 0
-326 -146 0
-327 -147 0
-418 -145 0
-419 -146 0
-420 -147 0
-229 -148 0
-230 -149 0
-231 -150 0
-244 -148 0
-245 -149 0
-246 -150 0
-400 -148 0
-401 -149 0
-402 -150 0
-577 -148 0
-578 -149 0
-579 -150 0
-190 -151 0
-191 -152 0
-192 -153 0
-196 -151 0
-197 -152 0
-198 -153 0
-208 -151 0
-209 -152 0
-210 -153 0
-322 -151 0
-323 -152 0
-324 -153 0
-433 -151 0
-434 -152 0
-435 -153 0
-361 -154 0
-362 -155 0
-363 -156 0
-406 -154 0
-407 -155 0
-408 -156 0
-502 -154 0
-503 -155 0
-504 -156 0
-598 -154 0
-599 -155 0
-600 -156 0
-328 -157 0
-329 -158 0
-330 -159 0
-409 -157 0
-410 -158 0
-411 -159 0
-586 -157 0
-587 -158 0
-588 -159 0
-556 -160 0
-557 -161 0
-558 -162 0
-586 -160 0
-587 -161 0
-588 -162 0
-187 -163 0
-188 -164 0
-189 -165 0
-391 -163 0
-392 -164 0
-393 -165 0
-568 -163 0
-569 -164 0
-570 -165 0
-175 -166 0
-176 -167 0
-177 -168 0
-190 -166 0
-191 -167 0
-192 -168 0
-355 -166 0
-356 -167 0
-357 -168 0
-481 -166 0
-482 -167 0
-483 -168 0
-487 -166 0
-488 -167 0
-489 -168 0
-193 -169 0
-194 -170 0
-195 -171 0
-436 -169 0
-437 -170 0
-438 -171 0
-457 -169 0
-458 -170 0
-459 -171 0
-268 -172 0
-269 -173 0
-270 -174 0
-286 -172 0
-287 -173 0
-288 -174 0
-379 -172 0
-380 -173 0
-381 -174 0
-394 -172 0
-395 -173 0
-396 -174 0
-556 -172 0
-557 -173 0
-558 -174 0
-232 -175 0
-233 -176 0
-234 -177 0
-235 -175 0
-236 -176 0
-237 -177 0
-244 -175 0
-245 -176 0
-246 -177 0
-331 -175 0
-332 -176 0
-333 -177 0
-334 -178 0
-335 -179 0
-336 -180 0
-397 -178 0
-398 -179 0
-399 -180 0
-451 -178 0
-452 -179 0
-453 -180 0
-460 -178 0
-461 -179 0
-462 -180 0
-253 -181 0
-254 -182 0
-255 -183 0
-301 -181 0
-302 -182 0
-303 -183 0
-436 -181 0
-437 -182 0
-438 -183 0
-457 -181 0
-458 -182 0
-459 -183 0
-193 -184 0
-194 -185 0
-195 -186 0
-205 -184 0
-206 -185 0
-207 -186 0
-238 -184 0
-239 -185 0
-240 -186 0
-325 -184 0
-326 -185 0
-327 -186 0
-550 -184 0
-551 -185 0
-552 -186 0
-256 -187 0
-257 -188 0
-258 -189 0
-292 -187 0
-293 -188 0
-294 -189 0
-361 -187 0
-362 -188 0
-363 -189 0
-487 -187 0
-488 -188 0
-489 -189 0
-325 -190 0
-326 -191 0
-327 -192 0
-391 -190 0
-392 -191 0
-393 -192 0
-463 -190 0
-464 -191 0
-465 -192 0
-478 -190 0
-479 -191 0
-480 -192 0
-481 -190 0
-482 -191 0
-483 -192 0
-349 -193 0
-350 -194 0
-351 -195 0
-409 -193 0
-410 -194 0
-411 -195 0
-430 -193 0
-431 -194 0
-432 -195 0
-478 -193 0
-479 -194 0
-480 -195 0
-580 -193 0
-581 -194 0
-582 -195 0
-367 -196 0
-368 -197 0
-369 -198 0
-388 -196 0
-389 -197 0
-390 -198 0
-559 -196 0
-560 -197 0
-561 -198 0
-217 -199 0
-218 -200 0
-219 -201 0
-292 -199 0
-293 -200 0
-294 -201 0
-316 -199 0
-317 -200 0
-318 -201 0
-286 -202 0
-287 -203 0
-288 -204 0
-478 -202 0
-479 -203 0
-480 -204 0
-331 -205 0
-332 -206 0
-333 -207 0
-376 -205 0
-377 -206 0
-378 -207 0
-448 -205 0
-449 -206 0
-450 -207 0
-529 -205 0
-530 -206 0
-531 -207 0
-538 -205 0
-539 -206 0
-540 -207 0
-277 -208 0
-278 -209 0
-279 -210 0
-217 -211 0
-218 -212 0
-219 -213 0
-367 -211 0
-368 -212 0
-369 -213 0
-559 -211 0
-560 -212 0
-561 -213 0
-244 -214 0
-245 -215 0
-246 -216 0
-361 -214 0
-362 -215 0
-363 -216 0
-376 -214 0
-377 -215 0
-378 -216 0
-247 -217 0
-248 -218 0
-249 -219 0
-319 -217 0
-320 -218 0
-321 -219 0
-385 -220 0
-386 -221 0
-387 -222 0
-580 -220 0
-581 -221 0
-582 -222 0
-322 -223 0
-323 -224 0
-324 -225 0
-547 -223 0
-548 -224 0
-549 -225 0
-247 -226 0
-248 -227 0
-249 -228 0
-283 -226 0
-284 -227 0
-285 -228 0
-298 -226 0
-299 -227 0
-300 -228 0
-325 -226 0
-326 -227 0
-327 -228 0
-349 -226 0
-350 -227 0
-351 -228 0
-394 -226 0
-395 -227 0
-396 -228 0
-418 -226 0
-419 -227 0
-420 -228 0
-319 -229 0
-320 -230 0
-321 -231 0
-385 -229 0
-386 -230 0
-387 -231 0
-430 -229 0
-431 -230 0
-432 -231 0
-493 -229 0
-494 -230 0
-495 -231 0
-589 -229 0
-590 -230 0
-591 -231 0
-235 -232 0
-236 -233 0
-237 -234 0
-487 -232 0
-488 -233 0
-489 -234 0
-586 -232 0
-587 -233 0
-588 -234 0
-496 -238 0
-497 -239 0
-498 -240 0
-508 -238 0
-509 -239 0
-510 -240 0
-526 -238 0
-527 -239 0
-528 -240 0
-598 -238 0
-599 -239 0
-600 -240 0
-250 -241 0
-251 -242 0
-252 -243 0
-313 -241 0
-314 -242 0
-315 -243 0
-316 -241 0
-317 -242 0
-318 -243 0
-475 -241 0
-476 -242 0
-477 -243 0
-595 -241 0
-596 -242 0
-597 -243 0
-289 -244 0
-290 -245 0
-291 -246 0
-334 -244 0
-335 -245 0
-336 -246 0
-589 -244 0
-590 -245 0
-591 -246 0
-370 -247 0
-371 -248 0
-372 -249 0
-388 -247 0
-389 -248 0
-390 -249 0
-409 -247 0
-410 -248 0
-411 -249 0
-475 -247 0
-476 -248 0
-477 -249 0
-334 -250 0
-335 -251 0
-336 -252 0
-418 -250 0
-419 -251 0
-420 -252 0
-346 -256 0
-347 -257 0
-348 -258 0
-481 -256 0
-482 -257 0
-483 -258 0
-496 -256 0
-497 -257 0
-498 -258 0
-361 -259 0
-362 -260 0
-363 -261 0
-424 -259 0
-425 -260 0
-426 -261 0
-352 -262 0
-353 -263 0
-354 -264 0
-283 -265 0
-284 -266 0
-285 -267 0
-418 -265 0
-419 -266 0
-420 -267 0
-532 -265 0
-533 -266 0
-534 -267 0
-589 -265 0
-590 -266 0
-591 -267 0
-409 -268 0
-410 -269 0
-411 -270 0
-295 -271 0
-296 -272 0
-297 -273 0
-403 -271 0
-404 -272 0
-405 -273 0
-289 -274 0
-290 -275 0
-291 -276 0
-484 -274 0
-485 -275 0
-486 -276 0
-583 -274 0
-584 -275 0
-585 -276 0
-382 -277 0
-383 -278 0
-384 -279 0
-508 -277 0
-509 -278 0
-510 -279 0
-298 -280 0
-299 -281 0
-300 -282 0
-349 -280 0
-350 -281 0
-351 -282 0
-439 -280 0
-440 -281 0
-441 -282 0
-499 -280 0
-500 -281 0
-501 -282 0
-427 -283 0
-428 -284 0
-429 -285 0
-433 -283 0
-434 -284 0
-435 -285 0
-571 -283 0
-572 -284 0
-573 -285 0
-373 -286 0
-374 -287 0
-375 -288 0
-382 -286 0
-383 -287 0
-384 -288 0
-565 -286 0
-566 -287 0
-567 -288 0
-313 -289 0
-314 -290 0
-315 -291 0
-319 -289 0
-320 -290 0
-321 -291 0
-433 -289 0
-434 -290 0
-435 -291 0
-508 -289 0
-509 -290 0
-510 -291 0
-430 -292 0
-431 -293 0
-432 -294 0
-451 -292 0
-452 -293 0
-453 -294 0
-559 -292 0
-560 -293 0
-561 -294 0
-382 -295 0
-383 -296 0
-384 -297 0
-406 -295 0
-407 -296 0
-408 -297 0
-475 -295 0
-476 -296 0
-477 -297 0
-376 -298 0
-377 -299 0
-378 -300 0
-397 -298 0
-398 -299 0
-399 -300 0
-439 -298 0
-440 -299 0
-441 -300 0
-463 -298 0
-464 -299 0
-465 -300 0
-322 -301 0
-323 -302 0
-324 -303 0
-385 -301 0
-386 -302 0
-387 -303 0
-436 -301 0
-437 -302 0
-438 -303 0
-445 -301 0
-446 -302 0
-447 -303 0
-478 -301 0
-479 -302 0
-480 -303 0
-550 -304 0
-551 -305 0
-552 -306 0
-460 -307 0
-461 -308 0
-462 -309 0
-511 -307 0
-512 -308 0
-513 -309 0
-400 -310 0
-401 -311 0
-402 -312 0
-457 -310 0
-458 -311 0
-459 -312 0
-532 -310 0
-533 -311 0
-534 -312 0
-328 -316 0
-329 -317 0
-330 -318 0
-463 -316 0
-464 -317 0
-465 -318 0
-379 -319 0
-380 -320 0
-381 -321 0
-412 -319 0
-413 -320 0
-414 -321 0
-433 -319 0
-434 -320 0
-435 -321 0
-454 -319 0
-455 -320 0
-456 -321 0
-478 -322 0
-479 -323 0
-480 -324 0
-592 -322 0
-593 -323 0
-594 -324 0
-466 -325 0
-467 -326 0
-468 -327 0
-481 -325 0
-482 -326 0
-483 -327 0
-412 -328 0
-413 -329 0
-414 -330 0
-454 -328 0
-455 -329 0
-456 -330 0
-490 -328 0
-491 -329 0
-492 -330 0
-514 -328 0
-515 -329 0
-516 -330 0
-541 -328 0
-542 -329 0
-543 -330 0
-343 -331 0
-344 -332 0
-345 -333 0
-478 -331 0
-479 -332 0
-480 -333 0
-481 -331 0
-482 -332 0
-483 -333 0
-484 -331 0
-485 -332 0
-486 -333 0
-511 -331 0
-512 -332 0
-513 -333 0
-595 -334 0
-596 -335 0
-597 -336 0
-439 -337 0
-440 -338 0
-441 -339 0
-424 -340 0
-425 -341 0
-426 -342 0
-484 -340 0
-485 -341 0
-486 -342 0
-349 -343 0
-350 -344 0
-351 -345 0
-403 -343 0
-404 -344 0
-405 -345 0
-364 -346 0
-365 -347 0
-366 -348 0
-397 -346 0
-398 -347 0
-399 -348 0
-550 -355 0
-551 -356 0
-552 -357 0
-565 -355 0
-566 -356 0
-567 -357 0
-526 -358 0
-527 -359 0
-528 -360 0
-517 -364 0
-518 -365 0
-519 -366 0
-436 -367 0
-437 -368 0
-438 -369 0
-475 -367 0
-476 -368 0
-477 -369 0
-598 -367 0
-599 -368 0
-600 -369 0
-388 -373 0
-389 -374 0
-390 -375 0
-403 -373 0
-404 -374 0
-405 -375 0
-487 -373 0
-488 -374 0
-489 -375 0
-553 -379 0
-554 -380 0
-555 -381 0
-499 -382 0
-500 -383 0
-501 -384 0
-490 -385 0
-491 -386 0
-492 -387 0
-472 -388 0
-473 -389 0
-474 -390 0
-589 -388 0
-590 -389 0
-591 -390 0
-403 -394 0
-404 -395 0
-405 -396 0
-481 -394 0
-482 -395 0
-483 -396 0
-553 -394 0
-554 -395 0
-555 -396 0
-556 -403 0
-557 -404 0
-558 -405 0
-472 -406 0
-473 -407 0
-474 -408 0
-535 -406 0
-536 -407 0
-537 -408 0
-547 -406 0
-548 -407 0
-549 -408 0
-595 -412 0
-596 -413 0
-597 -414 0
-514 -415 0
-515 -416 0
-516 -417 0
-538 -418 0
-539 -419 0
-540 -420 0
-463 -424 0
-464 -425 0
-465 -426 0
-445 -427 0
-446 -428 0
-447 -429 0
-496 -427 0
-497 -428 0
-498 -429 0
-502 -430 0
-503 -431 0
-504 -432 0
-562 -430 0
-563 -431 0
-564 -432 0
-484 -436 0
-485 -437 0
-486 -438 0
-496 -436 0
-497 -437 0
-498 -438 0
-505 -436 0
-506 -437 0
-507 -438 0
-535 -442 0
-536 -443 0
-537 -444 0
-502 -445 0
-503 -446 0
-504 -447 0
-523 -463 0
-524 -464 0
-525 -465 0
-502 -466 0
-503 -467 0
-504 -468 0
-532 -469 0
-533 -470 0
-534 -471 0
-571 -469 0
-572 -470 0
-573 -471 0
-523 -472 0
-524 -473 0
-525 -474 0
-541 -472 0
-542 -473 0
-543 -474 0
-553 -475 0
-554 -476 0
-555 -477 0
-484 -481 0
-485 -482 0
-486 -483 0
-523 -481 0
-524 -482 0
-525 -483 0
-493 -484 0
-494 -485 0
-495 -486 0
-571 -493 0
-572 -494 0
-573 -495 0
-532 -502 0
-533 -503 0
-534 -504 0
-514 -511 0
-515 -512 0
-516 -513 0
-556 -511 0
-557 -512 0
-558 -513 0
-523 -520 0
-524 -521 0
-525 -522 0
-529 -523 0
-530 -524 0
-531 -525 0
-595 -523 0
-596 -524 0
-597 -525 0
-574 -526 0
-575 -527 0
-576 -528 0
-580 -532 0
-581 -533 0
-582 -534 0
-541 -535 0
-542 -536 0
-543 -537 0
-547 -538 0
-548 -539 0
-549 -540 0
-550 -541 0
-551 -542 0
-552 -543 0
-571 -544 0
-572 -545 0
-573 -546 0
-583 -556 0
-584 -557 0
-585 -558 0
-598 -562 0
-599 -563 0
-600 -564 0
-583 -565 0
-584 -566 0
-585 -567 0
